DIMACS_lns/graph-1000-643.col
p edge 1000 1851
e 1 86
e 1 204
e 1 372
e 1 830
e 1 716
e 2 350
e 2 557
e 2 275
e 2 582
e 2 689
e 3 47
e 3 719
e 3 680
e 3 522
e 3 351
e 5 492
e 5 837
e 5 494
e 5 836
e 5 564
e 5 482
e 5 829
e 7 693
e 7 187
e 7 30
e 7 464
e 7 863
e 7 10
e 7 576
e 7 143
e 7 488
e 8 314
e 8 339
e 8 784
e 8 544
e 8 330
e 8 420
e 9 824
e 9 749
e 9 188
e 9 917
e 9 151
e 9 339
e 9 306
e 10 807
e 10 947
e 10 376
e 13 476
e 13 413
e 13 40
e 13 544
e 13 683
e 13 659
e 14 779
e 14 484
e 14 666
e 14 948
e 15 572
e 15 460
e 15 294
e 16 759
e 16 886
e 16 147
e 16 908
e 17 580
e 17 361
e 17 894
e 17 496
e 18 969
e 18 922
e 18 210
e 18 673
e 20 406
e 20 86
e 20 497
e 21 81
e 21 821
e 21 229
e 21 688
e 21 606
e 21 176
e 22 333
e 22 684
e 22 791
e 24 893
e 24 330
e 24 378
e 24 566
e 24 56
e 25 197
e 25 357
e 25 808
e 28 304
e 28 645
e 28 75
e 29 725
e 29 632
e 29 552
e 29 338
e 29 173
e 29 150
e 30 777
e 30 864
e 30 116
e 30 253
e 30 628
e 30 910
e 31 343
e 31 569
e 31 448
e 31 119
e 31 931
e 33 662
e 33 779
e 33 887
e 34 126
e 34 689
e 34 60
e 36 730
e 36 938
e 36 501
e 36 312
e 37 880
e 37 377
e 37 589
e 38 517
e 38 783
e 38 89
e 38 221
e 40 907
e 40 143
e 40 171
e 41 176
e 41 999
e 41 760
e 42 532
e 42 151
e 42 445
e 42 965
e 42 230
e 42 889
e 42 945
e 43 650
e 43 59
e 43 179
e 43 891
e 43 85
e 43 166
e 44 78
e 44 359
e 44 253
e 44 553
e 45 899
e 45 502
e 45 378
e 46 910
e 46 548
e 46 937
e 46 973
e 46 58
e 47 48
e 47 641
e 47 518
e 47 529
e 47 842
e 47 362
e 48 632
e 48 174
e 48 558
e 52 672
e 52 426
e 52 248
e 52 478
e 52 373
e 53 646
e 53 656
e 53 394
e 53 194
e 56 671
e 56 861
e 57 563
e 57 981
e 57 874
e 57 711
e 57 464
e 57 747
e 58 271
e 58 827
e 58 78
e 59 109
e 59 727
e 59 457
e 59 660
e 60 324
e 60 196
e 60 837
e 60 939
e 60 525
e 61 438
e 61 811
e 61 672
e 61 195
e 61 475
e 62 257
e 62 562
e 62 332
e 62 776
e 62 919
e 63 974
e 63 404
e 63 129
e 64 987
e 64 539
e 64 749
e 64 847
e 65 571
e 65 230
e 65 908
e 65 433
e 67 863
e 67 154
e 67 970
e 67 899
e 68 532
e 68 395
e 68 393
e 69 436
e 69 242
e 69 493
e 69 543
e 69 719
e 71 724
e 71 994
e 71 517
e 71 918
e 71 870
e 71 191
e 72 97
e 72 571
e 72 257
e 72 140
e 72 528
e 72 212
e 73 238
e 73 255
e 73 428
e 73 563
e 74 980
e 74 185
e 74 790
e 74 87
e 74 97
e 74 270
e 74 606
e 74 840
e 74 233
e 75 891
e 75 360
e 75 757
e 75 394
e 75 750
e 77 301
e 77 436
e 77 210
e 77 466
e 78 413
e 78 176
e 78 690
e 78 174
e 80 119
e 80 200
e 80 97
e 80 682
e 81 355
e 81 266
e 81 628
e 81 482
e 81 381
e 81 164
e 81 413
e 83 177
e 83 434
e 83 351
e 83 720
e 83 250
e 83 566
e 83 731
e 84 864
e 84 553
e 84 520
e 84 485
e 84 167
e 84 282
e 85 408
e 85 306
e 85 671
e 85 466
e 85 499
e 86 152
e 86 983
e 86 673
e 86 524
e 86 130
e 87 413
e 87 856
e 87 743
e 88 157
e 88 625
e 88 306
e 89 322
e 89 992
e 89 210
e 89 312
e 90 555
e 90 169
e 90 784
e 90 223
e 90 410
e 92 468
e 92 529
e 92 373
e 92 456
e 92 125
e 92 587
e 95 482
e 95 594
e 95 242
e 95 756
e 96 641
e 96 193
e 96 564
e 96 361
e 96 741
e 96 529
e 96 247
e 97 560
e 97 979
e 97 267
e 98 318
e 98 747
e 98 785
e 99 246
e 99 259
e 99 883
e 99 672
e 101 378
e 101 135
e 101 761
e 101 224
e 101 848
e 102 149
e 102 232
e 102 355
e 102 742
e 103 775
e 103 376
e 103 437
e 103 640
e 103 817
e 104 864
e 104 968
e 104 632
e 104 213
e 104 707
e 107 997
e 107 666
e 107 842
e 107 846
e 107 640
e 109 174
e 109 612
e 110 445
e 110 883
e 110 412
e 111 724
e 111 325
e 111 769
e 111 812
e 114 848
e 114 126
e 114 622
e 115 429
e 115 472
e 115 338
e 115 652
e 116 127
e 116 433
e 117 652
e 117 424
e 117 443
e 117 827
e 119 526
e 119 198
e 120 945
e 120 340
e 120 843
e 121 432
e 121 235
e 121 768
e 122 339
e 122 289
e 122 312
e 122 328
e 123 876
e 123 683
e 123 404
e 124 948
e 124 776
e 124 146
e 125 385
e 125 302
e 125 902
e 125 932
e 125 271
e 125 520
e 125 482
e 125 957
e 126 176
e 126 696
e 126 892
e 126 340
e 127 367
e 127 539
e 129 480
e 129 633
e 129 261
e 129 670
e 130 167
e 130 410
e 130 706
e 132 466
e 132 390
e 132 561
e 132 241
e 134 142
e 134 295
e 134 167
e 134 199
e 134 432
e 134 640
e 134 992
e 135 546
e 135 958
e 135 816
e 135 229
e 135 457
e 135 983
e 135 901
e 136 754
e 136 874
e 136 948
e 136 761
e 138 990
e 138 772
e 138 673
e 138 658
e 138 373
e 138 231
e 138 224
e 139 957
e 139 843
e 139 210
e 140 981
e 140 722
e 140 958
e 140 238
e 140 822
e 140 521
e 140 480
e 142 904
e 142 667
e 142 717
e 142 410
e 142 953
e 143 469
e 143 385
e 143 835
e 143 281
e 144 154
e 144 157
e 144 666
e 144 357
e 144 393
e 145 249
e 145 429
e 145 291
e 145 684
e 146 407
e 146 298
e 147 341
e 147 980
e 147 870
e 147 256
e 147 212
e 149 298
e 149 999
e 149 369
e 150 587
e 150 547
e 150 606
e 150 645
e 150 852
e 151 891
e 151 210
e 151 816
e 151 759
e 151 850
e 151 550
e 151 380
e 152 454
e 152 361
e 152 914
e 152 768
e 154 357
e 154 976
e 154 457
e 154 573
e 154 548
e 155 228
e 155 701
e 155 958
e 155 424
e 155 620
e 155 412
e 155 392
e 157 906
e 157 702
e 157 225
e 157 677
e 158 814
e 158 267
e 158 231
e 158 502
e 160 587
e 160 767
e 160 211
e 162 201
e 162 875
e 162 823
e 162 925
e 162 447
e 163 845
e 163 838
e 163 247
e 164 700
e 164 709
e 164 447
e 164 339
e 164 961
e 165 220
e 165 295
e 165 175
e 165 590
e 165 870
e 165 353
e 165 657
e 165 737
e 166 232
e 166 664
e 166 704
e 166 651
e 167 683
e 167 450
e 167 757
e 167 753
e 168 864
e 168 610
e 168 266
e 169 833
e 169 532
e 169 894
e 169 311
e 169 816
e 169 704
e 171 905
e 171 666
e 171 550
e 171 369
e 171 930
e 173 662
e 173 808
e 173 899
e 173 672
e 173 991
e 174 925
e 174 904
e 174 390
e 175 950
e 175 901
e 176 203
e 176 504
e 177 688
e 177 946
e 177 225
e 179 341
e 179 328
e 179 729
e 179 708
e 179 840
e 179 417
e 179 960
e 179 649
e 180 535
e 180 808
e 180 261
e 181 375
e 181 840
e 181 970
e 181 257
e 185 973
e 185 528
e 185 260
e 187 502
e 187 765
e 187 938
e 187 912
e 187 307
e 187 281
e 188 894
e 188 862
e 190 536
e 190 220
e 190 770
e 190 275
e 190 787
e 190 485
e 191 336
e 191 912
e 191 931
e 191 304
e 191 601
e 191 908
e 191 752
e 193 660
e 193 331
e 193 517
e 193 265
e 193 326
e 194 261
e 194 875
e 194 281
e 195 428
e 195 468
e 195 451
e 195 730
e 195 587
e 195 418
e 196 592
e 196 406
e 196 599
e 196 522
e 197 661
e 197 313
e 197 234
e 198 557
e 198 426
e 198 607
e 198 954
e 198 249
e 199 822
e 199 582
e 200 468
e 200 992
e 200 765
e 201 756
e 201 469
e 201 963
e 201 775
e 201 284
e 201 557
e 202 899
e 202 654
e 202 633
e 202 290
e 203 336
e 203 818
e 203 448
e 203 963
e 204 894
e 204 762
e 205 460
e 205 338
e 205 413
e 205 935
e 205 873
e 205 243
e 206 922
e 206 494
e 206 667
e 206 495
e 209 577
e 209 311
e 209 670
e 209 598
e 209 823
e 210 915
e 210 957
e 210 849
e 211 390
e 211 875
e 211 463
e 212 701
e 212 434
e 212 359
e 212 376
e 213 821
e 213 536
e 216 880
e 216 357
e 216 614
e 217 835
e 217 573
e 217 831
e 217 549
e 217 463
e 218 644
e 218 575
e 218 265
e 218 430
e 218 607
e 220 694
e 220 680
e 220 740
e 221 599
e 221 291
e 221 301
e 221 982
e 223 351
e 223 902
e 223 645
e 223 779
e 223 873
e 224 982
e 224 314
e 225 645
e 225 884
e 225 518
e 227 748
e 227 552
e 227 699
e 227 841
e 227 857
e 227 874
e 228 906
e 228 343
e 228 758
e 228 293
e 228 313
e 228 867
e 228 819
e 229 816
e 230 848
e 231 731
e 231 768
e 231 314
e 231 504
e 232 994
e 232 885
e 232 485
e 232 945
e 232 535
e 233 356
e 233 922
e 233 754
e 234 583
e 234 902
e 234 395
e 235 378
e 235 562
e 235 311
e 236 657
e 236 728
e 236 919
e 236 429
e 238 944
e 238 965
e 238 301
e 238 849
e 240 476
e 240 842
e 240 472
e 240 446
e 241 830
e 241 407
e 242 687
e 242 662
e 242 586
e 243 991
e 243 290
e 243 621
e 245 442
e 245 412
e 245 478
e 246 533
e 246 273
e 247 656
e 247 671
e 247 813
e 247 312
e 247 425
e 248 263
e 248 250
e 248 696
e 248 327
e 248 902
e 248 680
e 248 681
e 248 978
e 249 370
e 250 573
e 250 746
e 250 1000
e 250 786
e 250 420
e 251 569
e 251 715
e 251 533
e 252 514
e 252 390
e 252 632
e 253 893
e 253 306
e 254 505
e 254 431
e 254 961
e 255 261
e 255 931
e 256 271
e 256 259
e 257 445
e 259 367
e 259 614
e 259 939
e 260 901
e 260 960
e 260 378
e 261 316
e 261 363
e 261 755
e 263 386
e 263 876
e 263 979
e 263 509
e 265 790
e 265 880
e 266 561
e 266 840
e 266 791
e 266 841
e 267 775
e 267 867
e 270 336
e 270 276
e 271 644
e 271 445
e 273 815
e 273 910
e 273 562
e 275 794
e 275 930
e 275 694
e 276 648
e 276 975
e 276 573
e 276 425
e 276 592
e 279 843
e 279 443
e 279 673
e 279 561
e 279 725
e 279 848
e 280 380
e 280 584
e 280 624
e 281 783
e 281 757
e 282 892
e 282 471
e 284 883
e 284 814
e 284 393
e 284 805
e 287 886
e 287 802
e 287 764
e 288 760
e 288 709
e 288 738
e 289 711
e 289 577
e 290 838
e 290 395
e 291 1000
e 291 859
e 291 453
e 291 551
e 292 668
e 292 469
e 292 293
e 292 910
e 293 963
e 293 862
e 294 953
e 294 726
e 294 377
e 294 711
e 295 683
e 295 867
e 295 588
e 296 570
e 296 685
e 296 578
e 296 754
e 296 787
e 296 861
e 296 708
e 297 847
e 297 509
e 297 671
e 297 525
e 298 309
e 298 408
e 299 946
e 299 424
e 299 516
e 299 943
e 299 554
e 301 999
e 301 390
e 301 769
e 301 520
e 301 538
e 302 575
e 302 947
e 302 581
e 302 571
e 302 654
e 302 578
e 303 548
e 303 621
e 303 975
e 304 455
e 306 402
e 306 917
e 307 402
e 307 799
e 309 571
e 309 546
e 309 853
e 309 775
e 309 428
e 310 552
e 310 466
e 310 585
e 311 495
e 311 715
e 311 612
e 312 687
e 312 609
e 312 706
e 312 741
e 312 738
e 313 669
e 313 974
e 313 526
e 313 581
e 313 497
e 313 892
e 314 547
e 314 651
e 315 794
e 315 885
e 315 449
e 315 863
e 316 805
e 316 814
e 316 919
e 316 816
e 316 537
e 316 722
e 316 859
e 316 887
e 318 639
e 318 699
e 318 564
e 318 577
e 319 976
e 319 457
e 319 526
e 319 562
e 319 880
e 319 595
e 321 953
e 321 564
e 321 598
e 322 808
e 322 740
e 322 624
e 322 658
e 322 518
e 322 946
e 322 859
e 324 911
e 324 717
e 324 889
e 325 618
e 325 363
e 326 802
e 326 485
e 326 932
e 326 440
e 327 961
e 327 989
e 327 923
e 328 739
e 328 648
e 328 594
e 330 915
e 330 776
e 330 799
e 330 716
e 330 779
e 331 646
e 331 685
e 331 500
e 332 517
e 332 343
e 333 527
e 333 551
e 334 359
e 334 549
e 334 668
e 336 662
e 336 985
e 337 742
e 337 648
e 337 610
e 337 868
e 338 594
e 339 852
e 339 531
e 339 425
e 340 814
e 340 935
e 341 721
e 341 760
e 341 902
e 342 509
e 342 915
e 342 640
e 342 797
e 343 985
e 343 779
e 343 910
e 345 551
e 345 801
e 345 494
e 350 641
e 350 850
e 350 533
e 351 428
e 351 364
e 351 636
e 351 865
e 352 520
e 352 694
e 352 569
e 353 880
e 353 770
e 353 585
e 355 649
e 355 362
e 356 450
e 356 362
e 356 801
e 356 614
e 356 884
e 358 364
e 358 594
e 358 457
e 360 844
e 360 712
e 361 448
e 361 644
e 361 534
e 361 456
e 362 372
e 362 765
e 363 463
e 363 583
e 363 729
e 363 427
e 364 400
e 364 946
e 364 558
e 364 873
e 367 473
e 369 855
e 369 841
e 369 488
e 370 639
e 370 423
e 370 407
e 370 576
e 372 662
e 373 688
e 375 837
e 375 650
e 375 469
e 376 757
e 376 894
e 377 621
e 377 432
e 377 469
e 377 477
e 377 976
e 377 526
e 378 683
e 378 565
e 378 841
e 379 549
e 379 775
e 379 999
e 380 425
e 380 814
e 380 408
e 381 816
e 381 755
e 381 555
e 381 754
e 381 564
e 381 779
e 383 529
e 383 590
e 383 714
e 385 748
e 385 442
e 386 586
e 386 432
e 389 621
e 389 520
e 389 762
e 389 900
e 389 429
e 390 639
e 390 748
e 390 907
e 392 910
e 392 581
e 392 455
e 392 754
e 393 727
e 393 473
e 393 540
e 393 838
e 393 433
e 393 417
e 393 556
e 394 588
e 394 832
e 395 443
e 395 730
e 395 487
e 395 580
e 397 680
e 397 572
e 397 560
e 397 429
e 399 668
e 399 960
e 399 775
e 400 994
e 400 522
e 400 481
e 400 884
e 402 600
e 404 824
e 404 967
e 405 946
e 405 594
e 405 978
e 406 632
e 406 565
e 406 805
e 407 873
e 407 758
e 408 978
e 408 695
e 408 716
e 410 984
e 410 960
e 412 954
e 412 440
e 412 756
e 412 724
e 412 973
e 412 737
e 412 610
e 412 822
e 413 792
e 413 430
e 413 700
e 413 442
e 413 476
e 417 659
e 417 870
e 417 600
e 418 873
e 418 923
e 418 592
e 418 719
e 420 636
e 420 443
e 420 841
e 423 879
e 423 998
e 423 795
e 423 839
e 423 731
e 423 905
e 424 1000
e 425 571
e 426 886
e 426 731
e 427 548
e 427 869
e 428 895
e 429 839
e 429 671
e 429 714
e 430 935
e 430 434
e 430 609
e 430 908
e 431 442
e 431 651
e 432 860
e 432 770
e 432 836
e 432 538
e 433 481
e 433 972
e 433 536
e 434 833
e 434 799
e 436 682
e 436 471
e 436 632
e 436 460
e 437 865
e 437 741
e 437 650
e 437 624
e 438 518
e 438 967
e 440 840
e 440 586
e 440 927
e 442 683
e 443 816
e 443 714
e 445 667
e 445 871
e 445 504
e 446 794
e 446 832
e 446 658
e 446 689
e 446 625
e 447 914
e 447 583
e 447 663
e 448 697
e 448 468
e 449 870
e 449 746
e 449 712
e 450 994
e 451 516
e 451 512
e 453 711
e 453 859
e 453 846
e 453 808
e 453 681
e 454 708
e 454 644
e 455 712
e 456 529
e 456 697
e 457 573
e 457 884
e 457 496
e 458 500
e 458 762
e 458 860
e 459 606
e 459 801
e 459 844
e 459 758
e 460 726
e 464 470
e 464 714
e 464 879
e 466 950
e 466 592
e 467 991
e 467 997
e 467 862
e 467 598
e 467 866
e 468 497
e 468 612
e 469 850
e 469 599
e 470 938
e 470 911
e 470 594
e 471 683
e 471 641
e 472 849
e 473 739
e 473 527
e 475 757
e 475 815
e 476 824
e 477 569
e 477 980
e 478 675
e 478 764
e 480 906
e 481 660
e 481 994
e 481 783
e 482 526
e 482 987
e 483 583
e 483 845
e 483 996
e 484 753
e 484 902
e 484 839
e 484 823
e 485 583
e 485 981
e 485 816
e 487 902
e 487 939
e 487 570
e 487 775
e 488 927
e 488 931
e 490 504
e 490 600
e 490 839
e 492 728
e 492 720
e 493 640
e 493 937
e 493 597
e 493 564
e 493 685
e 494 946
e 494 543
e 494 563
e 494 913
e 495 894
e 496 776
e 496 724
e 497 900
e 497 520
e 497 757
e 497 949
e 499 712
e 499 526
e 500 589
e 500 645
e 501 846
e 501 986
e 502 955
e 504 866
e 504 648
e 505 708
e 505 605
e 505 917
e 509 698
e 509 690
e 512 893
e 512 656
e 512 574
e 514 589
e 514 895
e 516 534
e 517 887
e 518 991
e 518 915
e 518 563
e 518 652
e 520 816
e 520 598
e 520 986
e 521 584
e 521 654
e 522 860
e 522 650
e 524 540
e 524 547
e 524 944
e 524 607
e 525 992
e 525 651
e 525 714
e 525 881
e 526 554
e 526 606
e 527 588
e 527 597
e 527 555
e 527 996
e 527 982
e 527 876
e 527 935
e 527 600
e 528 787
e 528 649
e 529 865
e 529 840
e 529 728
e 530 907
e 530 868
e 530 664
e 531 869
e 531 853
e 531 664
e 531 590
e 533 704
e 533 996
e 534 833
e 534 856
e 534 712
e 535 920
e 536 887
e 537 543
e 537 767
e 537 884
e 538 749
e 538 928
e 538 877
e 539 690
e 540 839
e 540 947
e 540 557
e 543 746
e 544 843
e 544 802
e 546 971
e 546 817
e 546 682
e 546 605
e 546 728
e 547 949
e 548 874
e 548 660
e 548 853
e 550 944
e 550 737
e 550 818
e 551 863
e 551 840
e 552 892
e 552 682
e 553 1000
e 554 672
e 554 918
e 554 999
e 555 639
e 556 803
e 556 581
e 557 572
e 557 954
e 557 730
e 557 944
e 558 685
e 560 651
e 560 869
e 561 800
e 562 737
e 562 862
e 562 807
e 563 947
e 563 683
e 565 989
e 566 724
e 566 991
e 566 985
e 566 833
e 569 761
e 570 930
e 572 669
e 572 574
e 573 865
e 574 694
e 574 712
e 574 624
e 575 644
e 575 739
e 576 599
e 576 992
e 576 864
e 577 609
e 577 811
e 577 633
e 578 654
e 578 805
e 578 684
e 580 842
e 580 845
e 580 863
e 580 628
e 581 711
e 581 770
e 581 906
e 581 584
e 582 700
e 582 708
e 583 997
e 583 767
e 584 660
e 585 811
e 585 598
e 586 652
e 586 871
e 586 785
e 587 632
e 587 618
e 587 605
e 590 871
e 590 925
e 590 963
e 591 702
e 591 675
e 591 737
e 592 700
e 594 606
e 594 653
e 595 805
e 595 895
e 595 721
e 597 997
e 598 797
e 598 611
e 600 887
e 600 699
e 600 915
e 600 633
e 601 666
e 601 791
e 602 998
e 602 839
e 602 669
e 605 697
e 606 759
e 606 971
e 606 711
e 606 857
e 606 680
e 609 621
e 609 996
e 610 777
e 611 987
e 611 990
e 611 830
e 611 666
e 612 836
e 612 955
e 612 963
e 612 860
e 618 905
e 620 663
e 620 622
e 620 955
e 620 792
e 621 648
e 621 708
e 621 706
e 622 698
e 624 922
e 625 802
e 632 913
e 633 949
e 633 702
e 636 755
e 636 876
e 640 939
e 641 690
e 644 967
e 644 811
e 644 918
e 645 797
e 645 947
e 646 886
e 648 756
e 649 874
e 650 976
e 651 999
e 652 671
e 652 835
e 653 913
e 653 671
e 653 739
e 654 755
e 654 954
e 655 946
e 655 815
e 655 831
e 655 957
e 655 981
e 657 770
e 658 833
e 658 786
e 658 792
e 659 779
e 659 943
e 659 974
e 659 683
e 661 666
e 661 752
e 663 900
e 663 850
e 663 864
e 664 759
e 664 920
e 664 875
e 666 982
e 666 707
e 667 885
e 667 848
e 667 864
e 668 689
e 668 784
e 668 885
e 669 786
e 669 823
e 670 842
e 670 985
e 670 765
e 670 894
e 671 917
e 671 779
e 675 963
e 677 742
e 677 717
e 680 984
e 681 741
e 681 689
e 685 695
e 687 787
e 687 911
e 687 729
e 687 948
e 688 864
e 689 720
e 689 983
e 690 809
e 690 855
e 693 904
e 693 986
e 694 912
e 694 894
e 695 740
e 695 902
e 696 891
e 696 743
e 698 969
e 698 819
e 699 805
e 700 953
e 701 849
e 702 976
e 704 944
e 704 738
e 704 983
e 704 812
e 706 807
e 706 797
e 706 784
e 707 961
e 707 839
e 709 807
e 712 919
e 712 833
e 714 836
e 715 829
e 716 943
e 716 747
e 720 971
e 720 866
e 720 767
e 721 800
e 721 961
e 722 821
e 724 876
e 724 972
e 725 836
e 726 892
e 726 975
e 726 904
e 727 904
e 728 965
e 730 949
e 730 917
e 739 1000
e 740 765
e 741 982
e 741 849
e 743 795
e 746 813
e 746 772
e 747 768
e 748 905
e 750 831
e 750 795
e 752 953
e 753 847
e 753 870
e 754 814
e 754 879
e 756 791
e 757 997
e 757 790
e 759 876
e 760 859
e 760 801
e 760 900
e 764 783
e 765 845
e 765 786
e 767 969
e 768 932
e 768 949
e 769 907
e 769 802
e 769 800
e 770 807
e 770 848
e 772 953
e 775 932
e 776 961
e 776 803
e 777 839
e 777 865
e 779 803
e 785 953
e 786 945
e 786 855
e 792 974
e 792 927
e 794 905
e 794 823
e 795 832
e 795 902
e 795 844
e 805 1000
e 807 817
e 807 955
e 807 997
e 808 876
e 808 859
e 809 855
e 809 902
e 811 836
e 812 829
e 813 914
e 813 889
e 813 975
e 814 912
e 818 833
e 819 930
e 823 984
e 824 943
e 827 958
e 830 910
e 830 969
e 831 928
e 833 868
e 833 925
e 836 931
e 836 853
e 837 845
e 837 870
e 840 848
e 840 954
e 841 975
e 841 877
e 841 990
e 843 868
e 843 874
e 843 877
e 843 971
e 844 984
e 847 877
e 849 868
e 849 863
e 852 985
e 853 954
e 856 857
e 856 968
e 860 927
e 861 866
e 864 895
e 866 910
e 866 920
e 870 991
e 871 979
e 874 919
e 875 960
e 875 999
e 875 972
e 876 943
e 880 928
e 880 919
e 881 944
e 881 922
e 885 990
e 887 989
e 891 906
e 893 963
e 893 996
e 894 998
e 900 994
e 900 918
e 901 963
e 902 917
e 905 954
e 917 943
e 917 930
e 919 950
e 923 976
e 930 984
e 935 968
e 937 982
e 937 986
e 944 972
e 947 957
e 948 961
e 949 976
e 961 990
e 970 975
e 972 983
e 992 996
